StudentsNr = 10;
InstructorsNr = 60;
DaysNr = 2;
SlotsPerDay = 40;
AvailabilitySlotsLenght = 40;
RoomNr = 1;
ProgrammNr = 1;
DegreeNr = 1;
RolesNr = 0;
CoursesNr = 7;
InstructorsProgramm = [{1}, {1}, {1}, {1}, {1}, {1}, {1}, {1}, {1}, {1}, {1}, {1}, {1}, {1}, {1}, {1}, {1}, {1}, {1}, {1}, {1}, {1}, {1}, {1}, {1}, {1}, {1}, {1}, {1}, {1}, {1}, {1}, {1}, {1}, {1}, {1}, {1}, {1}, {1}, {1}, {1}, {1}, {1}, {1}, {1}, {1}, {1}, {1}, {1}, {1}, {1}, {1}, {1}, {1}, {1}, {1}, {1}, {1}, {1}, {1}];
InstructorRolesPerProgramm = array2d(1..ProgrammNr,{},[]);
InstructorsAvailability = [|1, 1, |0, 0, |0, 0, |0, 1, |0, 1, |0, 0, |1, 1, |0, 1, |1, 1, |1, 1, |1, 1, |1, 1, |1, 1, |1, 1, |0, 0, |1, 1, |1, 1, |1, 1, |0, 1, |0, 1, |1, 1, |1, 1, |1, 1, |0, 0, |1, 1, |1, 1, |1, 1, |1, 1, |0, 1, |1, 1, |1, 1, |1, 0, |1, 1, |1, 1, |0, 0, |1, 1, |0, 1, |0, 1, |1, 1, |1, 1, |0, 1, |1, 1, |0, 0, |1, 1, |0, 1, |1, 0, |1, 0, |1, 1, |1, 1, |0, 0, |1, 0, |1, 1, |1, 0, |0, 0, |1, 0, |1, 1, |0, 0, |1, 1, |0, 1, |1, 1|];
StudentsProgramm = [1, 1, 1, 1, 1, 1, 1, 1, 1, 1];
StudentsDegree = [1, 1, 1, 1, 1, 1, 1, 1, 1, 1];
StudentsSupervisorId = [21, 50, 13, 5, 3, 33, 7, 12, 21, 1];
StudentsCourseIds = [{2, 3, 4, 5, 7}, {2, 3, 4, 6, 7}, {1, 3, 4, 5, 7}, {1, 2, 3, 4, 6}, {1, 2, 3, 6, 7}, {1, 3, 4, 5, 6}, {1, 2, 4, 6, 7}, {1, 2, 3, 4, 7}, {1, 3, 4, 5, 6}, {1, 2, 4, 5, 7}];
StudentsAvailability = [|0, 1, |1, 1, |1, 1, |1, 1, |1, 1, |0, 1, |1, 1, |1, 1, |0, 0, |0, 0|];
TheoryticalMinCard = [5, 5, 5, 5, 5, 5, 5, 5, 5, 5];
CoursesInstructorIds = [{2, 6, 37}, {1, 5, 12, 14, 21, 22, 26, 34, 40, 41, 42, 44, 46, 48, 49, 52}, {2, 3, 4, 5, 6, 8, 10, 12, 13, 14, 17, 21, 25, 26, 37, 42, 44, 45, 46, 50, 54, 57, 58, 60}, {4, 8, 15, 18, 23, 26, 42, 46}, {25, 33, 39, 43}, {4, 11, 12, 14, 16, 20, 31, 38, 45, 55, 56, 57, 59, 60}, {4, 6, 7, 10, 11, 13, 16, 17, 18, 19, 20, 21, 22, 23, 26, 28, 31, 32, 33, 34, 35, 36, 38, 42, 44, 48, 49, 50, 53, 54, 55, 58, 60}];
RolesDemands = [];
RolesContinuity = [];
ExamLen = [2, 2, 2, 2, 2, 2, 2, 2, 2, 2];
LunchTsMinLen = 2;
LunchStarts = [20..23, 57..65];
SupervisorAvailable = 0;
OptimalLunchLenght = [1, 2];
OptimalStartTs = [0, 1];
OptimalFinishTs = [0, 40];
MinimizeRooms = 500;
RolesSoftContinuity = array2d(1..2,{},[]);
SameDegreeInRoom = 0;
Mergeability = 0;
